p cnf 512 2154
1 -2 0
2 -1 0
3 -4 0
4 -3 0
5 -6 0
6 -5 0
7 -8 0
8 -7 0
9 -10 0
10 -9 0
11 -12 0
12 -11 0
13 -14 0
14 -13 0
15 -16 0
16 -15 0
17 -18 0
18 -17 0
19 -20 0
20 -19 0
21 -22 0
22 -21 0
23 -24 0
24 -23 0
25 -26 0
26 -25 0
27 -28 0
28 -27 0
29 -30 0
30 -29 0
31 -32 0
32 -31 0
33 -34 0
34 -33 0
35 -36 0
36 -35 0
37 -38 0
38 -37 0
39 -40 0
40 -39 0
41 -42 0
42 -41 0
43 -44 0
44 -43 0
45 -46 0
46 -45 0
47 -48 0
48 -47 0
49 -50 0
50 -49 0
51 -52 0
52 -51 0
53 -54 0
54 -53 0
55 -56 0
-55 56 0
57 -58 0
58 -57 0
59 -60 0
-59 60 0
61 -62 0
62 -61 0
63 -64 0
64 -63 0
65 -66 0
66 -65 0
67 -68 0
68 -67 0
69 -70 0
70 -69 0
71 -72 0
72 -71 0
73 -74 0
-73 74 0
75 -76 0
-75 76 0
77 -78 0
78 -77 0
79 -80 0
80 -79 0
81 -82 0
82 -81 0
83 -84 0
84 -83 0
85 -86 0
86 -85 0
87 -88 0
-87 88 0
89 -90 0
90 -89 0
91 -92 0
-91 92 0
93 -94 0
-93 94 0
95 -96 0
96 -95 0
97 -98 0
98 -97 0
99 -100 0
-99 100 0
101 -102 0
102 -101 0
103 -104 0
104 -103 0
105 -106 0
106 -105 0
107 -108 0
108 -107 0
9 109 0
27 109 0
-9 -27 -109 0
3 110 0
21 110 0
-3 -21 -110 0
19 111 0
1 111 0
-111 -19 -1 0
3 112 0
112 -111 0
-3 111 -112 0
21 113 0
-111 113 0
-21 111 -113 0
5 114 0
-110 -113 -112 114 0
-114 113 -5 0
112 -114 -5 0
110 -114 -5 0
23 115 0
-110 -113 -112 115 0
-23 -115 113 0
112 -23 -115 0
110 -23 -115 0
23 116 0
5 116 0
-116 -23 -5 0
25 117 0
117 -116 -114 -115 0
-117 -25 116 0
-117 -25 115 0
-117 -25 114 0
25 118 0
7 118 0
-118 -25 -7 0
7 119 0
-116 119 -114 -115 0
-7 116 -119 0
-7 -119 115 0
-7 -119 114 0
27 120 0
-117 -118 120 -119 0
-27 119 -120 0
-27 118 -120 0
117 -27 -120 0
9 121 0
-117 -118 121 -119 0
-9 119 -121 0
-9 118 -121 0
117 -9 -121 0
29 122 0
-109 -121 122 -120 0
121 -29 -122 0
-29 120 -122 0
109 -29 -122 0
11 123 0
-109 -121 -120 123 0
-123 121 -11 0
-123 120 -11 0
109 -123 -11 0
29 124 0
11 124 0
-124 -29 -11 0
31 125 0
-123 -124 125 -122 0
-31 -125 124 0
-31 -125 123 0
-31 -125 122 0
13 126 0
31 126 0
-13 -31 -126 0
13 127 0
-123 127 -124 -122 0
-13 -127 124 0
-13 -127 123 0
-13 -127 122 0
33 128 0
-125 128 -127 -126 0
-33 127 -128 0
126 -33 -128 0
-33 -128 125 0
15 129 0
129 -125 -127 -126 0
-15 127 -129 0
126 -15 -129 0
-15 125 -129 0
33 130 0
15 130 0
-33 -15 -130 0
-17 130 0
129 -17 0
128 -17 0
1 131 0
19 131 0
-1 -19 -131 0
21 -132 3 0
-131 -132 3 0
21 -131 -132 0
132 -3 -21 0
131 -3 132 0
131 132 -21 0
-133 23 5 0
-133 23 132 0
-133 132 5 0
133 -23 -5 0
133 -23 -132 0
133 -5 -132 0
7 -134 25 0
-134 133 25 0
7 -134 133 0
134 -25 -7 0
134 -25 -133 0
134 -7 -133 0
27 -135 9 0
134 -135 9 0
134 27 -135 0
135 -9 -27 0
135 -9 -134 0
135 -27 -134 0
11 -136 29 0
135 -136 29 0
135 11 -136 0
136 -29 -11 0
136 -29 -135 0
136 -11 -135 0
13 -137 31 0
136 13 -137 0
136 -137 31 0
137 -13 -31 0
137 -13 -136 0
137 -31 -136 0
-138 33 15 0
137 -138 33 0
137 -138 15 0
-33 -15 138 0
138 -33 -137 0
138 -15 -137 0
17 35 138 -139 0
-35 17 -139 -138 0
-17 35 -139 -138 0
-35 -17 138 -139 0
139 -17 -35 -138 0
-17 35 139 138 0
-35 17 139 138 0
17 35 139 -138 0
-53 -139 0
19 140 0
37 140 0
-19 -37 -140 0
-39 -141 37 0
-141 39 -37 0
141 -37 -39 0
37 141 39 0
-142 -21 19 0
21 -19 -142 0
142 -19 -21 0
21 19 142 0
-141 142 -143 0
-140 142 -143 0
-141 -140 -143 0
-142 143 141 0
140 -142 143 0
140 143 141 0
144 -37 0
-39 144 0
37 39 -144 0
-41 -145 144 0
-144 -145 41 0
-41 -144 145 0
145 144 41 0
-146 145 -143 0
-146 -145 143 0
146 -145 -143 0
145 146 143 0
-21 147 0
-19 147 0
21 -147 19 0
-148 -23 147 0
-148 23 -147 0
148 -147 -23 0
148 23 147 0
-148 142 -149 0
148 -142 -149 0
149 -142 -148 0
148 149 142 0
149 146 5 0
-146 -149 5 0
-146 149 -5 0
146 -5 -149 0
-53 -35 0
21 -150 39 0
-150 -140 39 0
21 -150 -140 0
-39 150 -21 0
-39 150 140 0
150 140 -21 0
-151 23 41 0
-151 150 41 0
-151 150 23 0
-41 151 -23 0
151 -41 -150 0
151 -23 -150 0
43 25 -152 0
43 151 -152 0
151 25 -152 0
-43 -25 152 0
152 -43 -151 0
152 -25 -151 0
27 -153 45 0
27 -153 152 0
-153 45 152 0
153 -27 -45 0
153 -27 -152 0
153 -45 -152 0
47 -154 29 0
153 47 -154 0
153 -154 29 0
-47 -29 154 0
154 -47 -153 0
154 -29 -153 0
-155 31 49 0
-155 154 31 0
-155 154 49 0
155 -31 -49 0
155 -31 -154 0
155 -49 -154 0
-156 51 33 0
-156 155 33 0
-156 155 51 0
156 -33 -51 0
156 -33 -155 0
156 -51 -155 0
156 -157 35 53 0
-156 -53 -157 35 0
-156 -157 -35 53 0
156 -53 -157 -35 0
157 -35 -53 -156 0
156 -35 157 53 0
156 -53 157 35 0
-156 157 35 53 0
-71 -157 0
-158 154 31 49 0
-158 -49 -154 31 0
-158 -31 -154 49 0
-158 -31 -49 154 0
158 -31 -49 -154 0
-31 158 154 49 0
158 -49 154 31 0
158 -154 31 49 0
27 45 -159 152 0
27 -159 -152 -45 0
45 -27 -159 -152 0
-27 -159 -45 152 0
159 -27 -45 -152 0
159 45 -27 152 0
27 159 -45 152 0
27 159 45 -152 0
21 -160 140 39 0
-39 21 -160 -140 0
-160 -140 -21 39 0
-39 -160 140 -21 0
160 -21 -39 -140 0
160 140 -21 39 0
-39 21 160 140 0
21 160 -140 39 0
-161 19 -37 0
-19 37 -161 0
161 -19 -37 0
37 161 19 0
162 -161 0
55 162 0
161 -55 -162 0
-162 57 -163 0
-160 57 -163 0
-160 -162 -163 0
163 162 -57 0
163 160 -57 0
163 160 162 0
150 23 -164 41 0
-150 -41 23 -164 0
-150 -23 -164 41 0
150 -41 -23 -164 0
164 -23 -41 -150 0
150 -23 164 41 0
150 -41 23 164 0
-150 23 164 41 0
163 -165 164 0
-165 164 59 0
163 -165 59 0
-164 -163 165 0
-59 -164 165 0
-59 -163 165 0
43 151 25 -166 0
-43 -151 25 -166 0
43 -151 -25 -166 0
-43 151 -25 -166 0
166 -25 -43 -151 0
166 43 151 -25 0
166 -43 151 25 0
166 43 -151 25 0
166 61 -167 0
166 -167 165 0
61 -167 165 0
167 -61 -166 0
-165 167 -166 0
167 -61 -165 0
63 167 -168 0
159 167 -168 0
63 159 -168 0
168 -167 -63 0
168 -159 -167 0
168 -63 -159 0
153 -169 47 29 0
-153 -47 -169 29 0
-153 -169 47 -29 0
-47 153 -169 -29 0
169 -29 -47 -153 0
169 153 47 -29 0
169 -47 153 29 0
169 -153 47 29 0
169 -170 65 0
169 -170 168 0
-170 168 65 0
170 -169 -65 0
170 -168 -169 0
170 -65 -168 0
-171 170 158 0
-171 67 170 0
-171 67 158 0
-170 -158 171 0
-170 -67 171 0
-158 -67 171 0
155 51 -172 33 0
-172 -155 33 -51 0
-33 51 -172 -155 0
155 -33 -172 -51 0
172 -33 -51 -155 0
155 -33 51 172 0
155 33 172 -51 0
51 -155 33 172 0
-173 171 172 0
-173 69 172 0
-173 171 69 0
-171 -172 173 0
-172 173 -69 0
-171 173 -69 0
71 173 157 -174 0
-71 157 -173 -174 0
-157 71 -173 -174 0
-157 -71 173 -174 0
-157 174 -71 -173 0
-157 71 174 173 0
174 -71 173 157 0
71 174 157 -173 0
-89 -174 0
-175 -57 55 0
57 -55 -175 0
175 -55 -57 0
175 57 55 0
37 176 0
55 176 0
-37 -55 -176 0
175 -177 176 141 0
-141 -177 -175 176 0
175 -141 -176 -177 0
-176 -177 -175 141 0
-141 177 -176 -175 0
175 177 -176 141 0
177 -175 176 141 0
175 -141 177 176 0
-178 -75 73 0
-178 -73 75 0
178 -73 -75 0
73 178 75 0
-55 37 -179 0
-179 55 -37 0
179 -37 -55 0
37 179 55 0
-179 180 0
73 180 0
179 -73 -180 0
-178 -181 180 0
178 -181 -180 0
-178 -180 181 0
178 181 180 0
21 177 -182 181 0
-177 -182 -21 181 0
177 -181 -182 -21 0
21 -177 -181 -182 0
182 -177 -181 -21 0
21 177 182 -181 0
21 182 -177 181 0
177 182 -21 181 0
-182 0
-53 -89 0
37 183 0
73 183 0
-37 -73 -183 0
-184 75 39 0
-184 39 -183 0
-184 75 -183 0
184 -39 -75 0
-39 184 183 0
184 -75 183 0
-185 77 41 0
184 -185 41 0
184 -185 77 0
185 -41 -77 0
185 -41 -184 0
185 -77 -184 0
43 -186 79 0
43 -186 185 0
-186 185 79 0
186 -43 -79 0
186 -43 -185 0
186 -79 -185 0
45 -187 81 0
-187 81 186 0
45 -187 186 0
-81 187 -45 0
187 -81 -186 0
187 -45 -186 0
-188 47 83 0
-188 187 47 0
-188 187 83 0
188 -47 -83 0
188 -47 -187 0
188 -83 -187 0
85 -189 49 0
85 -189 188 0
-189 188 49 0
189 -85 -49 0
189 -85 -188 0
189 -49 -188 0
51 87 -190 0
87 189 -190 0
51 189 -190 0
-87 190 -51 0
190 -87 -189 0
190 -51 -189 0
-191 190 53 89 0
-191 -190 -89 53 0
-53 -191 -190 89 0
-53 -191 190 -89 0
191 -53 -89 -190 0
191 -53 190 89 0
191 190 -89 53 0
191 -190 53 89 0
-107 -191 0
192 -93 0
192 -91 0
93 91 -192 0
-95 193 0
-192 193 0
95 192 -193 0
194 -97 0
194 -193 0
97 193 -194 0
194 -99 -195 0
99 -195 -194 0
-99 195 -194 0
194 99 195 0
196 -73 0
-75 196 0
73 75 -196 0
-77 197 0
-196 197 0
77 196 -197 0
198 -79 0
198 -197 0
79 197 -198 0
-81 198 -199 0
81 -199 -198 0
199 -81 -198 0
199 198 81 0
-200 -77 196 0
-200 -196 77 0
200 -77 -196 0
200 196 77 0
-201 -79 197 0
-201 79 -197 0
-79 -197 201 0
79 197 201 0
-201 202 0
-200 202 0
200 -202 201 0
-203 -199 202 0
199 -203 -202 0
203 -199 -202 0
199 203 202 0
73 204 0
91 204 0
-73 -91 -204 0
91 -205 -93 0
-91 93 -205 0
205 -91 -93 0
93 91 205 0
-178 -206 -205 0
-178 -206 -204 0
-206 -205 -204 0
178 205 206 0
178 204 206 0
204 205 206 0
192 -207 -95 0
-207 -192 95 0
207 -192 -95 0
192 207 95 0
200 -207 -208 0
200 -208 206 0
-207 -208 206 0
-200 207 208 0
208 -200 -206 0
207 208 -206 0
-209 -97 193 0
-209 97 -193 0
209 -97 -193 0
209 193 97 0
-201 200 -210 0
-200 -210 201 0
210 -200 -201 0
210 200 201 0
-209 -210 -211 0
-210 208 -211 0
-209 208 -211 0
210 209 211 0
210 211 -208 0
209 211 -208 0
-203 211 -212 0
211 -195 -212 0
-203 -195 -212 0
203 212 -211 0
195 212 -211 0
203 195 212 0
213 -99 0
213 -194 0
99 194 -213 0
213 -214 -101 0
-214 101 -213 0
214 -213 -101 0
214 213 101 0
214 -215 -212 0
-214 -215 212 0
215 -214 -212 0
215 214 212 0
-81 216 0
-198 216 0
81 198 -216 0
-217 -83 216 0
-217 -216 83 0
217 -216 -83 0
217 83 216 0
218 -199 0
218 -202 0
199 202 -218 0
218 -217 -219 0
217 -218 -219 0
-217 -218 219 0
218 217 219 0
215 -220 219 47 0
-47 -220 -215 219 0
215 -47 -220 -219 0
-220 -215 47 -219 0
-47 -215 220 -219 0
215 47 220 -219 0
-215 219 47 220 0
215 -47 219 220 0
-220 0
-15 0
-33 0
-51 0
-69 0
-87 0
-105 0
-35 -17 0
-35 130 0
-35 129 0
-35 128 0
1 -19 -221 0
19 -221 -1 0
221 -1 -19 0
1 221 19 0
37 222 0
-221 222 0
-222 221 -37 0
21 131 -223 3 0
-131 -223 3 -21 0
21 -3 -131 -223 0
131 -3 -223 -21 0
223 -3 -21 -131 0
21 131 -3 223 0
131 3 -21 223 0
21 -131 3 223 0
-223 224 0
224 -222 0
-224 222 223 0
39 225 0
225 -222 0
-39 -225 222 0
39 226 0
226 -223 0
-39 -226 223 0
23 132 -227 5 0
-132 -23 -227 5 0
23 -132 -5 -227 0
132 -23 -5 -227 0
227 -5 -23 -132 0
23 132 227 -5 0
132 227 -23 5 0
23 -132 227 5 0
227 228 0
-226 -224 228 -225 0
226 -228 -227 0
225 -228 -227 0
224 -228 -227 0
41 229 0
-226 -224 -225 229 0
-41 226 -229 0
-41 225 -229 0
-41 -229 224 0
41 230 0
227 230 0
-41 -227 -230 0
7 133 25 -231 0
7 -133 -25 -231 0
-133 25 -231 -7 0
133 -25 -231 -7 0
231 -7 -25 -133 0
231 133 25 -7 0
7 231 133 -25 0
7 -133 231 25 0
231 232 0
-229 -228 232 -230 0
-232 230 -231 0
-232 -231 229 0
-232 228 -231 0
43 233 0
-229 -228 233 -230 0
-43 -233 230 0
-43 -233 229 0
-43 -233 228 0
43 234 0
231 234 0
-43 -231 -234 0
134 27 -235 9 0
-134 -235 -27 9 0
27 -134 -235 -9 0
134 -235 -9 -27 0
235 -9 -27 -134 0
134 27 -9 235 0
134 -27 9 235 0
27 -134 9 235 0
235 236 0
-233 -232 -234 236 0
-235 -236 234 0
-235 -236 233 0
-235 -236 232 0
45 237 0
-233 -232 -234 237 0
-237 234 -45 0
-237 233 -45 0
-237 232 -45 0
45 238 0
235 238 0
-45 -235 -238 0
135 11 -239 29 0
-135 11 -29 -239 0
-135 -239 -11 29 0
135 -29 -239 -11 0
239 -11 -29 -135 0
239 135 -11 29 0
239 135 11 -29 0
239 -135 11 29 0
239 240 0
-237 -236 240 -238 0
-240 238 -239 0
-240 237 -239 0
-240 -239 236 0
47 241 0
-237 -236 241 -238 0
-47 238 -241 0
-47 -241 237 0
-47 -241 236 0
47 242 0
239 242 0
-47 -239 -242 0
136 13 -243 31 0
-31 -136 13 -243 0
-13 -136 -243 31 0
-13 -31 136 -243 0
243 -13 -31 -136 0
-13 243 136 31 0
243 -31 136 13 0
243 -136 13 31 0
243 244 0
-240 -242 -241 244 0
-244 242 -243 0
241 -244 -243 0
240 -244 -243 0
49 245 0
-240 -242 -241 245 0
-245 242 -49 0
241 -245 -49 0
240 -245 -49 0
49 246 0
243 246 0
-49 -243 -246 0
137 -247 33 15 0
-33 -247 -137 15 0
-15 -247 -137 33 0
137 -33 -15 -247 0
247 -15 -33 -137 0
137 -15 247 33 0
137 -33 247 15 0
247 -137 33 15 0
247 248 0
-246 -245 -244 248 0
-247 -248 246 0
-247 -248 245 0
-247 -248 244 0
51 249 0
249 -246 -245 -244 0
-249 246 -51 0
-249 245 -51 0
-249 244 -51 0
51 250 0
247 250 0
-51 -247 -250 0
-53 250 0
-53 249 0
-53 248 0
-139 250 0
249 -139 0
-139 248 0
-145 143 -251 0
143 -251 -149 0
-145 -251 -149 0
145 -143 251 0
149 -143 251 0
145 149 251 0
-41 252 0
-144 252 0
41 144 -252 0
-43 -253 252 0
43 -253 -252 0
-43 253 -252 0
43 253 252 0
254 -23 0
254 -147 0
23 147 -254 0
-255 254 -25 0
-255 25 -254 0
-25 -254 255 0
254 25 255 0
-148 256 0
256 -142 0
148 142 -256 0
-255 256 -257 0
-257 -256 255 0
257 -255 -256 0
257 256 255 0
257 -253 -258 0
257 -258 251 0
-253 -258 251 0
253 258 -257 0
258 -257 -251 0
253 258 -251 0
-43 259 0
259 -252 0
43 252 -259 0
-260 259 -45 0
-260 45 -259 0
260 -45 -259 0
45 259 260 0
255 261 0
256 261 0
255 256 261 0
-255 -261 -256 0
262 -25 0
262 -254 0
25 254 -262 0
262 -263 -27 0
27 -263 -262 0
263 -27 -262 0
27 263 262 0
263 -264 -261 0
-263 261 -264 0
-263 -261 264 0
263 261 264 0
-265 -260 264 0
-265 258 264 0
-265 -260 258 0
-264 260 265 0
-258 -264 265 0
-258 260 265 0
266 -27 0
266 -262 0
27 262 -266 0
-267 266 -29 0
-267 29 -266 0
267 -29 -266 0
266 267 29 0
-263 268 0
261 268 0
263 -261 -268 0
-267 268 -269 0
267 -268 -269 0
-267 269 -268 0
267 269 268 0
-45 270 0
-259 270 0
45 259 -270 0
-271 -47 270 0
-271 -270 47 0
-270 -47 271 0
271 47 270 0
-271 269 -272 0
-271 265 -272 0
269 265 -272 0
272 271 -269 0
272 -265 271 0
272 -265 -269 0
267 273 0
268 273 0
267 268 273 0
-267 -273 -268 0
-29 274 0
274 -266 0
29 266 -274 0
-31 -275 274 0
-274 -275 31 0
-31 275 -274 0
275 274 31 0
-273 275 -276 0
273 -275 -276 0
276 -273 -275 0
276 273 275 0
277 -47 0
277 -270 0
47 270 -277 0
277 -49 -278 0
-277 -278 49 0
-277 278 -49 0
277 278 49 0
-279 -278 -276 0
272 -279 -278 0
272 -279 -276 0
279 276 278 0
279 278 -272 0
279 276 -272 0
280 -49 0
280 -277 0
49 277 -280 0
280 -281 -51 0
-281 51 -280 0
-280 281 -51 0
280 51 281 0
-282 -279 281 0
279 -281 -282 0
282 -281 -279 0
282 279 281 0
275 283 0
-273 283 0
-273 275 283 0
273 -275 -283 0
284 -31 0
284 -274 0
31 274 -284 0
-285 284 -33 0
-285 -284 33 0
-33 -284 285 0
284 285 33 0
285 -286 -283 0
-285 283 -286 0
-285 286 -283 0
283 286 285 0
282 -287 286 15 0
-282 -287 -15 286 0
282 -287 -15 -286 0
-282 -287 -286 15 0
287 -282 -15 -286 0
282 287 -286 15 0
287 -282 286 15 0
282 287 -15 286 0
-287 0
-288 140 -141 0
-288 -140 141 0
288 -140 -141 0
140 141 288 0
3 142 288 0
3 -142 -288 0
-3 -288 142 0
-3 -142 288 0
-289 253 -251 0
-253 -289 251 0
-253 289 -251 0
253 289 251 0
7 257 -290 289 0
257 -289 -290 -7 0
-290 -257 289 -7 0
7 -289 -290 -257 0
290 -289 -257 -7 0
7 290 -257 289 0
7 257 290 -289 0
257 290 289 -7 0
-290 0
-281 -291 286 0
279 -281 -291 0
279 -291 286 0
291 -286 281 0
-279 291 281 0
-279 291 -286 0
292 -51 0
-280 292 0
51 280 -292 0
-53 -293 292 0
-292 -293 53 0
-292 -53 293 0
292 53 293 0
-291 -294 293 0
-294 291 -293 0
-291 294 -293 0
294 291 293 0
-33 295 0
-284 295 0
33 284 -295 0
-285 296 0
283 296 0
285 -283 -296 0
295 296 35 -297 0
-35 -295 296 -297 0
-35 295 -296 -297 0
-295 35 -296 -297 0
-35 -295 297 -296 0
297 295 35 -296 0
-295 297 296 35 0
-35 297 295 296 0
-298 17 297 294 0
-298 297 -294 -17 0
-298 294 -17 -297 0
-298 17 -294 -297 0
298 -294 -17 -297 0
298 17 294 -297 0
298 17 297 -294 0
298 297 294 -17 0
-298 0
-265 271 -299 0
-271 265 -299 0
-271 -265 299 0
271 299 265 0
-300 299 11 269 0
-300 269 -299 -11 0
-300 299 -269 -11 0
-300 11 -299 -269 0
300 -299 -269 -11 0
299 11 300 -269 0
11 300 269 -299 0
299 300 269 -11 0
-300 0
-301 161 -1 0
1 -301 -161 0
-161 301 -1 0
1 161 301 0
-301 0
-258 260 -302 0
-260 -302 258 0
-260 -258 302 0
302 260 258 0
302 -303 9 264 0
-9 -302 -303 264 0
-9 302 -264 -303 0
-264 -302 -303 9 0
-9 -264 -302 303 0
302 -264 303 9 0
-302 303 9 264 0
-9 302 303 264 0
-303 0
278 -304 -272 0
272 -304 -278 0
304 -278 -272 0
272 278 304 0
13 276 304 0
13 -276 -304 0
-13 276 -304 0
-13 304 -276 0
47 305 0
29 305 0
-47 -305 -29 0
27 306 0
45 306 0
-27 -45 -306 0
43 307 0
25 307 0
-43 -25 -307 0
21 308 0
308 -140 0
140 -308 -21 0
39 309 0
-140 309 0
-39 140 -309 0
39 310 0
21 310 0
-39 -310 -21 0
23 311 0
311 -308 -309 -310 0
-311 310 -23 0
-311 309 -23 0
-311 308 -23 0
41 312 0
23 312 0
-312 -41 -23 0
41 313 0
-308 -309 313 -310 0
-41 -313 310 0
-41 -313 309 0
-41 -313 308 0
43 314 0
-312 -313 -311 314 0
-43 313 -314 0
312 -43 -314 0
-43 311 -314 0
25 315 0
-312 -313 -311 315 0
-315 313 -25 0
312 -315 -25 0
-315 311 -25 0
45 316 0
-315 -314 316 -307 0
-316 315 -45 0
-316 314 -45 0
-316 307 -45 0
27 317 0
-315 317 -314 -307 0
-317 -27 315 0
-317 -27 314 0
-317 -27 307 0
29 318 0
-317 -316 318 -306 0
317 -29 -318 0
316 -29 -318 0
306 -29 -318 0
47 319 0
319 -317 -316 -306 0
-47 -319 317 0
-47 -319 316 0
-47 -319 306 0
31 320 0
-319 -305 -318 320 0
319 -31 -320 0
-31 318 -320 0
305 -31 -320 0
49 321 0
-319 -305 321 -318 0
319 -321 -49 0
318 -321 -49 0
305 -321 -49 0
31 322 0
49 322 0
-31 -49 -322 0
33 323 0
-322 -321 -320 323 0
322 -33 -323 0
-33 -323 321 0
-33 -323 320 0
33 324 0
51 324 0
-33 -51 -324 0
51 325 0
325 -322 -321 -320 0
322 -325 -51 0
-325 321 -51 0
-325 320 -51 0
-35 325 0
-35 324 0
-35 323 0
-53 325 0
-53 324 0
-53 323 0
57 326 0
326 -160 0
160 -326 -57 0
55 327 0
327 -161 0
-55 -327 161 0
-327 328 0
-160 328 0
160 -328 327 0
57 329 0
-327 329 0
327 -329 -57 0
164 330 0
-328 330 -326 -329 0
-330 -164 329 0
328 -330 -164 0
326 -330 -164 0
59 331 0
-328 -326 -329 331 0
-59 -331 329 0
-59 -331 328 0
326 -59 -331 0
59 332 0
164 332 0
-59 -164 -332 0
166 333 0
333 -332 -331 -330 0
-333 -166 332 0
331 -333 -166 0
330 -333 -166 0
61 334 0
334 -332 -331 -330 0
-334 -61 332 0
-334 331 -61 0
330 -334 -61 0
61 335 0
166 335 0
-61 -166 -335 0
159 336 0
-334 336 -333 -335 0
-336 -159 335 0
334 -336 -159 0
333 -336 -159 0
63 337 0
-334 337 -333 -335 0
-337 -63 335 0
334 -337 -63 0
333 -337 -63 0
63 338 0
159 338 0
-63 -159 -338 0
169 339 0
-336 -338 -337 339 0
338 -169 -339 0
337 -169 -339 0
336 -169 -339 0
65 340 0
-336 -338 -337 340 0
-340 338 -65 0
337 -340 -65 0
-340 336 -65 0
65 341 0
169 341 0
-65 -169 -341 0
158 342 0
342 -340 -341 -339 0
-158 341 -342 0
-158 340 -342 0
-158 339 -342 0
67 343 0
343 -340 -341 -339 0
-343 -67 341 0
-343 -67 340 0
-343 -67 339 0
67 344 0
158 344 0
-67 -158 -344 0
172 345 0
-343 -344 -342 345 0
-172 344 -345 0
343 -172 -345 0
342 -172 -345 0
69 346 0
-343 346 -344 -342 0
-346 344 -69 0
343 -346 -69 0
342 -346 -69 0
69 347 0
172 347 0
-69 -172 -347 0
-71 347 0
346 -71 0
-71 345 0
-157 347 0
-157 346 0
-157 345 0
160 57 -348 162 0
160 -162 -348 -57 0
-160 -162 57 -348 0
-160 -348 162 -57 0
-160 -162 -57 348 0
-160 57 162 348 0
160 162 -57 348 0
160 -162 57 348 0
75 349 0
348 349 0
-75 -348 -349 0
-55 -350 161 0
-350 -161 55 0
-55 350 -161 0
350 161 55 0
73 351 0
350 351 0
-73 -350 -351 0
75 352 0
-351 352 0
-75 -352 351 0
348 353 0
-351 353 0
-348 351 -353 0
163 -354 164 59 0
-59 -354 164 -163 0
-354 -164 -163 59 0
163 -59 -354 -164 0
-59 -164 -163 354 0
163 -164 354 59 0
163 -59 164 354 0
164 -163 354 59 0
354 355 0
-352 -349 355 -353 0
-354 -355 353 0
-354 -355 352 0
-354 -355 349 0
77 356 0
-352 356 -349 -353 0
-77 353 -356 0
-77 -356 352 0
-77 349 -356 0
77 357 0
354 357 0
-77 -354 -357 0
166 61 -358 165 0
166 -165 -61 -358 0
-165 61 -166 -358 0
-61 -166 -358 165 0
-165 358 -61 -166 0
61 358 -166 165 0
166 358 -61 165 0
166 -165 61 358 0
358 359 0
-357 -355 359 -356 0
-359 357 -358 0
-359 356 -358 0
-359 355 -358 0
79 360 0
-357 -355 -356 360 0
-360 -79 357 0
-360 356 -79 0
-360 -79 355 0
79 361 0
358 361 0
-79 -358 -361 0
63 159 167 -362 0
159 -167 -362 -63 0
63 -159 -167 -362 0
167 -159 -362 -63 0
-159 -167 362 -63 0
63 167 -159 362 0
159 167 362 -63 0
63 159 -167 362 0
362 363 0
-359 -360 -361 363 0
-363 361 -362 0
-363 -362 360 0
-363 -362 359 0
81 364 0
-359 -360 364 -361 0
-81 361 -364 0
-81 -364 360 0
-81 -364 359 0
81 365 0
362 365 0
-81 -362 -365 0
169 -366 168 65 0
169 -366 -168 -65 0
-366 -168 65 -169 0
-366 168 -169 -65 0
-168 -169 -65 366 0
168 65 -169 366 0
169 168 -65 366 0
169 -168 65 366 0
366 367 0
-363 -365 367 -364 0
365 -366 -367 0
364 -366 -367 0
-366 363 -367 0
83 368 0
-363 368 -365 -364 0
365 -368 -83 0
364 -368 -83 0
-368 363 -83 0
83 369 0
366 369 0
-83 -366 -369 0
67 170 158 -370 0
-170 158 -67 -370 0
-170 67 -158 -370 0
-158 170 -67 -370 0
-170 -158 -67 370 0
67 -158 170 370 0
170 158 -67 370 0
-170 67 158 370 0
370 371 0
-369 371 -368 -367 0
-371 -370 369 0
368 -371 -370 0
367 -371 -370 0
85 372 0
-369 -368 372 -367 0
-372 -85 369 0
368 -372 -85 0
367 -372 -85 0
85 373 0
370 373 0
-85 -370 -373 0
-374 171 69 172 0
-171 -374 -69 172 0
-171 -374 -172 69 0
-374 -172 -69 171 0
-171 -172 -69 374 0
-172 171 374 69 0
-69 171 374 172 0
-171 374 69 172 0
374 375 0
375 -371 -372 -373 0
-374 373 -375 0
-374 -375 372 0
-374 371 -375 0
87 376 0
-371 376 -372 -373 0
-376 -87 373 0
-376 -87 372 0
-376 371 -87 0
87 377 0
374 377 0
-87 -374 -377 0
-89 377 0
376 -89 0
375 -89 0
-174 377 0
376 -174 0
375 -174 0
-378 -141 -175 0
-378 -176 -175 0
-378 -141 -176 0
175 378 141 0
175 378 176 0
378 176 141 0
379 -57 0
379 -55 0
57 -379 55 0
-59 379 -380 0
-380 -379 59 0
-59 380 -379 0
379 380 59 0
380 145 -381 378 0
-378 145 -381 -380 0
380 -378 -381 -145 0
-381 -380 378 -145 0
-378 381 -380 -145 0
380 381 378 -145 0
145 381 -380 378 0
380 -378 145 381 0
-177 -382 -180 0
-178 -177 -382 0
-178 -382 -180 0
382 177 180 0
382 177 178 0
382 178 180 0
382 -200 -383 0
382 381 -383 0
-200 381 -383 0
200 -382 383 0
-381 -382 383 0
200 -381 383 0
-384 -380 -145 0
-384 378 -145 0
-384 -380 378 0
380 145 384 0
-378 145 384 0
380 -378 384 0
-59 385 0
-379 385 0
59 379 -385 0
-386 -61 385 0
-386 -385 61 0
-385 386 -61 0
61 386 385 0
386 253 384 -387 0
-386 -384 253 -387 0
-253 -384 386 -387 0
-386 -253 384 -387 0
-386 387 -253 -384 0
387 -253 386 384 0
-386 387 253 384 0
387 -384 386 253 0
-201 387 -388 0
387 383 -388 0
-201 383 -388 0
388 -387 201 0
388 -383 -387 0
388 -383 201 0
-386 -253 -389 0
-253 384 -389 0
-386 384 -389 0
389 386 253 0
389 -384 253 0
389 -384 386 0
390 -61 0
390 -385 0
61 385 -390 0
390 -391 -63 0
63 -391 -390 0
391 -63 -390 0
63 390 391 0
-392 389 260 391 0
-392 -391 260 -389 0
-392 -260 391 -389 0
-392 389 -260 -391 0
-260 -391 -389 392 0
389 -260 391 392 0
389 -391 260 392 0
260 391 -389 392 0
-392 388 -393 0
-392 -199 -393 0
388 -199 -393 0
393 392 -388 0
199 393 392 0
199 393 -388 0
-394 -391 260 0
-394 389 -391 0
-394 389 260 0
-260 394 391 0
394 391 -389 0
394 -260 -389 0
395 -63 0
395 -390 0
63 390 -395 0
-396 395 -65 0
-396 -395 65 0
396 -395 -65 0
396 65 395 0
-271 -397 260 0
-260 -397 271 0
397 -260 -271 0
397 271 260 0
396 394 -398 397 0
-394 -396 -398 397 0
-394 396 -397 -398 0
-396 -397 394 -398 0
-394 -396 -397 398 0
396 -397 394 398 0
-396 394 398 397 0
-394 396 398 397 0
-217 398 -399 0
-217 393 -399 0
393 398 -399 0
217 -398 399 0
217 -393 399 0
-398 -393 399 0
400 -83 0
-216 400 0
83 216 -400 0
-401 400 -85 0
-401 85 -400 0
401 -85 -400 0
400 85 401 0
-402 401 -399 0
-401 -402 399 0
-401 402 -399 0
402 401 399 0
-397 394 -403 0
-396 -397 -403 0
-396 394 -403 0
-394 397 403 0
396 397 403 0
-394 396 403 0
404 -65 0
404 -395 0
65 395 -404 0
404 -67 -405 0
67 -404 -405 0
-404 -67 405 0
67 404 405 0
-271 406 0
406 -260 0
271 260 -406 0
-407 406 -278 0
-407 278 -406 0
407 -406 -278 0
406 407 278 0
407 -408 403 405 0
407 -403 -408 -405 0
-407 -403 -408 405 0
-407 -408 -405 403 0
-407 -403 -405 408 0
-407 408 403 405 0
407 -405 408 403 0
407 -403 408 405 0
402 408 31 0
-402 -408 31 0
-402 -31 408 0
402 -31 -408 0
-409 -383 201 0
-201 -409 383 0
409 -201 -383 0
409 383 201 0
409 387 -410 25 0
387 -410 -409 -25 0
409 -410 -25 -387 0
-410 -409 25 -387 0
-409 -25 -387 410 0
409 25 -387 410 0
387 -409 25 410 0
409 387 -25 410 0
-410 0
200 -411 -382 0
382 -200 -411 0
411 -200 -382 0
382 200 411 0
23 381 -412 411 0
381 -412 -411 -23 0
-412 -381 -23 411 0
23 -412 -381 -411 0
412 -381 -411 -23 0
412 23 -381 411 0
412 23 381 -411 0
412 381 -23 411 0
-412 0
217 -413 -393 0
-217 393 -413 0
413 -217 -393 0
217 393 413 0
398 -414 413 29 0
-413 398 -414 -29 0
-398 -414 -29 413 0
-413 -398 -414 29 0
-413 -398 -29 414 0
-398 414 413 29 0
-413 398 414 29 0
398 -29 414 413 0
-414 0
73 179 19 0
-179 -73 19 0
-19 179 -73 0
73 -19 -179 0
-415 -408 399 0
-401 -415 -408 0
-401 -415 399 0
415 408 -399 0
415 401 408 0
415 401 -399 0
416 -85 0
416 -400 0
85 400 -416 0
416 -87 -417 0
-416 87 -417 0
417 -416 -87 0
417 416 87 0
-418 -415 417 0
-418 415 -417 0
-415 418 -417 0
415 417 418 0
407 -405 -419 0
-405 403 -419 0
407 403 -419 0
-407 419 405 0
-403 419 405 0
-407 -403 419 0
420 -67 0
-404 420 0
67 404 -420 0
-421 420 -69 0
-420 -421 69 0
421 -420 -69 0
421 420 69 0
278 422 0
406 422 0
278 406 422 0
-406 -278 -422 0
-423 281 -422 0
-281 -423 422 0
423 -281 -422 0
423 281 422 0
-424 421 423 419 0
-424 423 -421 -419 0
-424 -423 421 -419 0
-424 -423 -421 419 0
-423 424 -421 -419 0
-423 421 424 419 0
423 424 -421 419 0
421 423 424 -419 0
424 418 33 0
-418 -424 33 0
-418 -33 424 0
-424 -33 418 0
-424 -417 -425 0
415 -417 -425 0
415 -424 -425 0
424 417 425 0
-415 417 425 0
424 -415 425 0
426 -87 0
426 -416 0
87 416 -426 0
426 -427 -89 0
-426 -427 89 0
-426 -89 427 0
426 427 89 0
-428 -425 427 0
-428 -427 425 0
428 -427 -425 0
428 427 425 0
423 -421 -429 0
423 419 -429 0
-421 419 -429 0
429 -423 421 0
429 -423 -419 0
429 421 -419 0
-69 430 0
-420 430 0
69 420 -430 0
429 71 -431 430 0
-431 -71 -429 430 0
-430 71 -431 -429 0
429 -430 -431 -71 0
431 -430 -71 -429 0
429 431 -430 71 0
429 431 -71 430 0
431 71 -429 430 0
422 432 0
-281 432 0
281 -422 -432 0
431 432 293 -433 0
-431 -293 432 -433 0
-431 293 -433 -432 0
431 -293 -433 -432 0
-431 -293 433 -432 0
431 433 293 -432 0
431 -293 433 432 0
-431 433 432 293 0
428 35 433 0
-428 35 -433 0
-428 -35 433 0
428 -35 -433 0
199 -434 -388 0
388 -199 -434 0
434 -199 -388 0
199 388 434 0
27 392 434 0
27 -392 -434 0
-27 392 -434 0
-392 -27 434 0
87 435 0
51 435 0
-435 -87 -51 0
41 436 0
77 436 0
-41 -77 -436 0
73 437 0
37 437 0
-437 -73 -37 0
75 438 0
-437 438 0
-75 -438 437 0
39 439 0
75 439 0
-39 -75 -439 0
39 440 0
-437 440 0
-39 -440 437 0
77 441 0
-439 441 -438 -440 0
-77 440 -441 0
439 -77 -441 0
438 -77 -441 0
41 442 0
-439 -438 442 -440 0
-442 -41 440 0
439 -442 -41 0
-442 -41 438 0
79 443 0
-442 443 -441 -436 0
442 -443 -79 0
441 -443 -79 0
436 -443 -79 0
43 444 0
-442 -441 -436 444 0
-43 442 -444 0
-43 441 -444 0
-43 436 -444 0
43 445 0
79 445 0
-43 -79 -445 0
45 446 0
-445 -443 -444 446 0
445 -45 -446 0
-45 -446 444 0
443 -45 -446 0
81 447 0
447 -445 -443 -444 0
-81 445 -447 0
-81 -447 444 0
-81 443 -447 0
81 448 0
45 448 0
-81 -45 -448 0
47 449 0
449 -446 -448 -447 0
-47 448 -449 0
447 -47 -449 0
-47 -449 446 0
47 450 0
83 450 0
-47 -83 -450 0
83 451 0
-446 -448 -447 451 0
-451 -83 448 0
447 -451 -83 0
-451 -83 446 0
85 452 0
-450 452 -451 -449 0
-452 -85 451 0
-452 450 -85 0
449 -452 -85 0
49 453 0
-450 -451 453 -449 0
-49 -453 451 0
450 -49 -453 0
449 -49 -453 0
85 454 0
49 454 0
-85 -49 -454 0
51 455 0
455 -452 -453 -454 0
-455 454 -51 0
-455 453 -51 0
-455 452 -51 0
87 456 0
456 -452 -453 -454 0
-87 -456 454 0
-87 -456 453 0
452 -87 -456 0
456 -53 0
-53 455 0
435 -53 0
456 -89 0
455 -89 0
435 -89 0
-457 37 -73 0
73 -457 -37 0
457 -37 -73 0
73 37 457 0
91 458 0
458 -457 0
-91 457 -458 0
-459 75 183 39 0
-75 -459 39 -183 0
-39 -459 75 -183 0
-39 -75 -459 183 0
459 -39 -75 -183 0
-39 459 75 183 0
-75 459 183 39 0
459 75 39 -183 0
-459 460 0
460 -458 0
459 458 -460 0
93 461 0
461 -459 0
-461 459 -93 0
93 462 0
462 -458 0
458 -462 -93 0
184 77 -463 41 0
-184 -77 -463 41 0
-41 -184 77 -463 0
184 -41 -77 -463 0
463 -41 -77 -184 0
184 463 -41 77 0
184 463 -77 41 0
463 -184 77 41 0
463 464 0
-461 -462 -460 464 0
-464 462 -463 0
461 -464 -463 0
-464 460 -463 0
95 465 0
-461 465 -462 -460 0
-465 -95 462 0
-465 461 -95 0
-465 -95 460 0
95 466 0
463 466 0
-95 -463 -466 0
43 185 79 -467 0
43 -185 -79 -467 0
-43 -185 79 -467 0
-43 185 -79 -467 0
467 -43 -79 -185 0
-43 185 79 467 0
43 185 -79 467 0
43 -185 79 467 0
467 468 0
-465 -464 468 -466 0
-468 -467 466 0
465 -468 -467 0
-468 464 -467 0
97 469 0
-465 -464 469 -466 0
-469 -97 466 0
-469 465 -97 0
-469 -97 464 0
97 470 0
467 470 0
-97 -467 -470 0
45 81 186 -471 0
-186 -81 45 -471 0
-186 81 -45 -471 0
-81 186 -45 -471 0
471 -45 -81 -186 0
81 186 -45 471 0
-81 45 186 471 0
-186 45 81 471 0
471 472 0
-469 -468 472 -470 0
470 -472 -471 0
469 -472 -471 0
468 -472 -471 0
99 473 0
-469 -468 473 -470 0
-99 470 -473 0
-99 469 -473 0
-99 468 -473 0
99 474 0
471 474 0
-99 -471 -474 0
-475 187 47 83 0
-475 -187 47 -83 0
-475 -47 -187 83 0
-475 -47 187 -83 0
475 -47 -83 -187 0
-47 475 187 83 0
475 187 47 -83 0
475 -187 47 83 0
475 476 0
-473 -472 -474 476 0
-475 -476 474 0
-475 -476 473 0
-475 -476 472 0
101 477 0
-473 477 -472 -474 0
474 -101 -477 0
-101 -477 473 0
-101 472 -477 0
101 478 0
475 478 0
-101 -475 -478 0
85 188 -479 49 0
-188 -85 -479 49 0
-188 85 -49 -479 0
-85 -49 188 -479 0
479 -49 -85 -188 0
479 85 -49 188 0
479 -85 188 49 0
-188 479 85 49 0
479 480 0
-476 480 -477 -478 0
-479 -480 478 0
-479 -480 477 0
-479 -480 476 0
103 481 0
-476 -477 481 -478 0
-481 -103 478 0
-481 -103 477 0
-481 -103 476 0
103 482 0
479 482 0
-103 -479 -482 0
51 87 189 -483 0
51 -87 -189 -483 0
87 -189 -483 -51 0
-87 189 -483 -51 0
483 -51 -87 -189 0
483 87 189 -51 0
483 51 -87 189 0
483 51 87 -189 0
483 484 0
-481 -480 -482 484 0
482 -484 -483 0
-484 -483 481 0
-484 480 -483 0
105 485 0
-481 485 -480 -482 0
482 -105 -485 0
-105 -485 481 0
-105 480 -485 0
105 486 0
483 486 0
-105 -483 -486 0
486 -107 0
-107 485 0
-107 484 0
486 -191 0
-191 485 0
-191 484 0
-101 487 0
-213 487 0
101 213 -487 0
-103 487 -488 0
103 -487 -488 0
488 -487 -103 0
103 488 487 0
-489 -214 219 0
-489 -214 212 0
-489 219 212 0
214 489 -219 0
214 489 -212 0
489 -219 -212 0
217 490 0
218 490 0
217 218 490 0
-490 -217 -218 0
-490 401 -491 0
490 -401 -491 0
491 -401 -490 0
490 491 401 0
-492 489 -491 0
-492 -491 -488 0
-492 489 -488 0
-489 491 492 0
488 491 492 0
488 -489 492 0
493 -103 0
493 -487 0
103 487 -493 0
-494 493 -105 0
-494 -493 105 0
494 -493 -105 0
494 493 105 0
401 495 0
-490 495 0
-490 401 495 0
490 -401 -495 0
-496 -495 417 0
-496 -417 495 0
496 -417 -495 0
417 495 496 0
-494 -497 496 0
-497 492 496 0
-494 -497 492 0
494 -496 497 0
-496 497 -492 0
494 497 -492 0
-105 498 0
-493 498 0
105 493 -498 0
-499 107 497 498 0
-499 -497 -107 498 0
-499 -497 107 -498 0
-499 497 -107 -498 0
-497 -107 499 -498 0
107 497 499 -498 0
497 -107 499 498 0
-497 107 499 498 0
500 -417 0
495 500 0
417 -495 -500 0
500 -501 -427 0
-500 -501 427 0
501 -500 -427 0
501 500 427 0
501 -502 53 499 0
-499 501 -53 -502 0
-53 -501 -502 499 0
-499 -501 -502 53 0
-499 -53 502 -501 0
502 -501 53 499 0
-499 501 502 53 0
501 -53 502 499 0
-502 0
-503 73 91 37 0
-91 -503 73 -37 0
-503 91 -73 -37 0
-91 -503 37 -73 0
503 -91 -73 -37 0
503 91 37 -73 0
503 -91 73 37 0
503 73 91 -37 0
-503 0
-504 488 -489 0
-504 489 -488 0
504 -488 -489 0
488 504 489 0
49 491 504 0
49 -491 -504 0
-504 491 -49 0
504 -49 -491 0
-505 207 -206 0
-505 -207 206 0
505 -206 -207 0
505 207 206 0
505 200 41 -506 0
-505 -41 200 -506 0
-41 505 -200 -506 0
-505 -200 41 -506 0
-505 -41 -200 506 0
505 -200 41 506 0
-505 200 41 506 0
-41 505 200 506 0
-506 0
195 -211 -507 0
211 -195 -507 0
507 -195 -211 0
507 195 211 0
45 203 507 0
45 -203 -507 0
203 -45 -507 0
507 -203 -45 0
-508 494 -492 0
-508 -494 492 0
508 -494 -492 0
508 494 492 0
508 51 -509 496 0
-508 -509 496 -51 0
508 -496 -509 -51 0
-508 -496 51 -509 0
-508 -496 509 -51 0
508 -496 509 51 0
-508 509 51 496 0
508 509 496 -51 0
-509 0
-510 209 -208 0
-209 -510 208 0
-209 510 -208 0
510 208 209 0
43 210 510 0
43 -210 -510 0
-43 -510 210 0
-43 510 -210 0
-511 -205 204 0
-511 -204 205 0
511 -204 -205 0
204 205 511 0
178 511 39 -512 0
-39 -178 511 -512 0
-39 -511 178 -512 0
-178 -511 39 -512 0
-39 -178 -511 512 0
-511 512 178 39 0
-178 512 511 39 0
-39 512 178 511 0
-512 0
-17 0
-35 0
-53 0
-71 0
-89 0
-107 0
